
Gurobi 9.5.1 (linux64) logging started Tue Jun 21 04:22:43 2022

Set parameter LogFile to value "../results/logs/log_web-hudong.e_5_250_2022_06_21_01_26.log"
Gurobi Optimizer version 9.5.1 build v9.5.1rc2 (linux64)
Thread count: 8 physical cores, 8 logical processors, using up to 8 threads
Optimize a model with 940126 rows, 3949310 columns and 4082210 nonzeros
Model fingerprint: 0x24ab142b
Variable types: 0 continuous, 3949310 integer (3949310 binary)
Coefficient statistics:
  Matrix range     [1e+00, 5e+00]
  Objective range  [1e+00, 1e+00]
  Bounds range     [1e+00, 1e+00]
  RHS range        [1e+00, 2e+02]
Found heuristic solution: objective 1055322.0000
Presolve removed 913899 rows and 3918665 columns (presolve time = 5s) ...
Presolve removed 914848 rows and 3918672 columns
Presolve time: 6.21s
Presolved: 25278 rows, 30638 columns, 94524 nonzeros
Found heuristic solution: objective 1055844.0000
Variable types: 0 continuous, 30638 integer (28268 binary)

Root simplex log...

Iteration    Objective       Primal Inf.    Dual Inf.      Time
       0    1.0707410e+06   5.810875e+03   0.000000e+00      7s
   10964    1.0572705e+06   0.000000e+00   0.000000e+00      8s

Root relaxation: objective 1.057270e+06, 10964 iterations, 0.37 seconds (0.56 work units)

    Nodes    |    Current Node    |     Objective Bounds      |     Work
 Expl Unexpl |  Obj  Depth IntInf | Incumbent    BestBd   Gap | It/Node Time

     0     0 1057270.45    0 1580 1055844.00 1057270.45  0.14%     -    9s
H    0     0                    1056284.0000 1057270.45  0.09%     -    9s
     0     0 1056599.55    0  596 1056284.00 1056599.55  0.03%     -    9s
H    0     0                    1056469.0000 1056599.55  0.01%     -   10s
H    0     0                    1056505.0000 1056593.69  0.01%     -   10s
     0     0 1056537.39    0  552 1056505.00 1056537.39  0.00%     -   10s
     0     0 1056531.47    0  110 1056505.00 1056531.47  0.00%     -   11s
H    0     0                    1056514.0000 1056531.47  0.00%     -   11s
     0     0 1056530.03    0   92 1056514.00 1056530.03  0.00%     -   11s
     0     0 1056522.00    0   39 1056514.00 1056522.00  0.00%     -   12s
H    0     0                    1056516.0000 1056522.00  0.00%     -   12s
H    0     0                    1056517.0000 1056522.00  0.00%     -   12s
     0     0 1056522.00    0   27 1056517.00 1056522.00  0.00%     -   13s
     0     0 1056521.25    0   15 1056517.00 1056521.25  0.00%     -   15s
H    0     0                    1056518.0000 1056521.25  0.00%     -   15s
H    0     0                    1056519.0000 1056521.25  0.00%     -   15s
     0     0 1056521.15    0   26 1056519.00 1056521.15  0.00%     -   16s
     0     0 1056520.97    0   16 1056519.00 1056520.97  0.00%     -   16s
     0     0 1056520.97    0  606 1056519.00 1056520.97  0.00%     -   17s
     0     0 1056520.97    0  116 1056519.00 1056520.97  0.00%     -   17s
     0     0 1056520.97    0   54 1056519.00 1056520.97  0.00%     -   17s
     0     0 1056520.97    0   39 1056519.00 1056520.97  0.00%     -   17s
     0     0 1056519.67    0   22 1056519.00 1056519.67  0.00%     -   17s
     0     0 1056519.67    0   87 1056519.00 1056519.67  0.00%     -   17s
     0     0 1056519.67    0   32 1056519.00 1056519.67  0.00%     -   17s
     0     0 1056519.67    0   17 1056519.00 1056519.67  0.00%     -   17s
     0     0 1056519.67    0    8 1056519.00 1056519.67  0.00%     -   17s
     0     0 1056519.67    0   17 1056519.00 1056519.67  0.00%     -   17s
     0     0 1056519.67    0   12 1056519.00 1056519.67  0.00%     -   17s
     0     0 1056519.67    0    4 1056519.00 1056519.67  0.00%     -   17s
     0     0 1056519.00    0    7 1056519.00 1056519.00  0.00%     -   17s

Cutting planes:
  Gomory: 1
  Cover: 2
  MIR: 2
  GUB cover: 2
  Zero half: 2

Explored 1 nodes (15584 simplex iterations) in 17.63 seconds (12.23 work units)
Thread count was 8 (of 8 available processors)

Solution count 10: 1.05652e+06 1.05652e+06 1.05652e+06 ... 1.05652e+06

Optimal solution found (tolerance 0.00e+00)
Best objective 1.056519000000e+06, best bound 1.056519000000e+06, gap 0.0000%
